
Gurobi 7.5.2 (linux64, Python) logging started Mon Apr 23 00:31:23 2018

Academic license - for non-commercial use only
Read MPS format model from file ../SIPLIB/sslp/sslp_15_45_5.mps
Reading time = 0.00 seconds
SSLP_15_45_5: 61 rows, 705 columns, 1379 nonzeros
Read MPS format model from file ../SIPLIB/sslp/sslp_15_45_5.mps
Reading time = 0.00 seconds
SSLP_15_45_5: 61 rows, 705 columns, 1379 nonzeros
Read MPS format model from file ../SIPLIB/sslp/sslp_15_45_5.mps
Reading time = 0.00 seconds
SSLP_15_45_5: 61 rows, 705 columns, 1379 nonzeros
Read MPS format model from file ../SIPLIB/sslp/sslp_15_45_5.mps
Reading time = 0.00 seconds
SSLP_15_45_5: 61 rows, 705 columns, 1379 nonzeros
Read MPS format model from file ../SIPLIB/sslp/sslp_15_45_5.mps
Reading time = 0.00 seconds
SSLP_15_45_5: 61 rows, 705 columns, 1379 nonzeros
